============================[ Problem Statistics ]=============================
|                                                                             |
|  Number of variables:           729                                         |
|  Number of clauses:            9447                                         |
|  Parse time:                   0.00 s                                       |
|  Simplification time:          0.00 s                                       |
|                                                                             |
============================[ Search Statistics ]==============================
| Conflicts |          ORIGINAL         |          LEARNT          | Progress |
|           |    Vars  Clauses Literals |    Limit  Clauses Lit/Cl |          |
===============================================================================
===============================================================================
restarts              : 1
conflicts             : 7              (1303 /sec)
decisions             : 23             (0.00 % random) (4280 /sec)
propagations          : 1192           (221809 /sec)
conflict literals     : 31             (0.00 % deleted)
Memory used           : 5.18 MB
CPU time              : 0.005374 s

SATISFIABLE
